
%FILE DATA:	Soccer Computational Problem for MiniZinc Models	%
%AUTHOR:	Jack Wall	%
%CONTACT:  	116397063@umail.ucc.ie			%
%LAST UPDATE:	03/03/2020, 12:07:43						%
%DESCRIPTION: 	99 games played with 11 games left				%


n=11; %number of teams

%Games to play
games=[|2,6|7,10|1,9|8,1|7,6|9,8|4,6|4,5|1,2|11,1|1,3|];

%Initial points
iPoints=[17,21,36,32,33,19,18,10,31,27,23];

%POSITION CONSTRAINTS
% [|teamID, operator, position|...]
% operators index:
%  1 for =  operator
%  2 for >  operator
%  3 for >= operator
%  4 for <  operator
%  5 for <= operator
positionConstraints=[|5,5,1|3,2,1|9,5,3|];